; vmt-chc-benchmarks/./cav12/array_max-3_000.smt2
(set-logic HORN)

(declare-fun |state| ( Bool Bool Bool Bool Real Real Real Real Real Real Real Real Real Real Real Real Real Real Real Real Real Real Real Real Real Real Real Real Real Real Real Real Real ) Bool)

(assert
  (forall ( (A Bool) (B Bool) (C Bool) (D Bool) (E Real) (F Real) (G Real) (H Real) (I Real) (J Real) (K Real) (L Real) (M Real) (N Real) (O Real) (P Real) (Q Real) (R Real) (S Real) (T Real) (U Real) (V Real) (W Real) (X Real) (Y Real) (Z Real) (A1 Real) (B1 Real) (C1 Real) (D1 Real) (E1 Real) (F1 Real) (G1 Real) ) 
    (=>
      (and
        (and (not B) (not C) (not D) (not A))
      )
      (state D C B A F G H I J L M N O P Q R S T V W X Y Z A1 B1 C1 D1 E1 F1 G1 E K U)
    )
  )
)
(assert
  (forall ( (A Bool) (B Bool) (C Bool) (D Bool) (E Bool) (F Bool) (G Bool) (H Bool) (I Real) (J Real) (K Real) (L Real) (M Real) (N Real) (O Real) (P Real) (Q Real) (R Real) (S Real) (T Real) (U Real) (V Real) (W Real) (X Real) (Y Real) (Z Real) (A1 Real) (B1 Real) (C1 Real) (D1 Real) (E1 Real) (F1 Real) (G1 Real) (H1 Real) (I1 Real) (J1 Real) (K1 Real) (L1 Real) (M1 Real) (N1 Real) (O1 Real) (P1 Real) (Q1 Real) (R1 Real) (S1 Real) (T1 Real) (U1 Real) (V1 Real) (W1 Real) (X1 Real) (Y1 Real) (Z1 Real) (A2 Real) (B2 Real) (C2 Real) (D2 Real) (E2 Real) (F2 Real) (G2 Real) (H2 Real) (I2 Real) (J2 Real) (K2 Real) (L2 Real) (M2 Real) (N2 Real) (O2 Real) (P2 Real) (Q2 Real) (R2 Real) (S2 Real) (T2 Real) (U2 Real) (V2 Real) (W2 Real) (X2 Real) ) 
    (=>
      (and
        (state D
       C
       B
       A
       L
       N
       P
       R
       T
       X
       Z
       B1
       D1
       F1
       H1
       J1
       L1
       N1
       R1
       T1
       V1
       X1
       Z1
       B2
       D2
       F2
       H2
       J2
       L2
       N2
       I
       U
       O1)
        (let ((a!1 (and (= U1 I)
                (not (= U1 0.0))
                (= U1 7.0)
                (not (= U1 6.0))
                (not (= U1 5.0))
                (not (= U1 4.0))
                (not (= U1 3.0))
                (not (= U1 2.0))
                (not (= U1 1.0))
                (= N1 P2)
                (= Q1 Q2)
                (= (+ Q1 (* (- 1.0) I)) 1.0)))
      (a!2 (and (= L1 Q2)
                (= U1 I)
                (not (= U1 0.0))
                (= U1 8.0)
                (not (= U1 7.0))
                (not (= U1 6.0))
                (not (= U1 5.0))
                (not (= U1 4.0))
                (not (= U1 3.0))
                (not (= U1 2.0))
                (not (= U1 1.0))
                (= Q1 P2)
                (= (+ Q1 (* (- 1.0) I)) 1.0)))
      (a!3 (and (= L1 Q2)
                (= U1 I)
                (not (= U1 0.0))
                (= U1 6.0)
                (not (= U1 5.0))
                (not (= U1 4.0))
                (not (= U1 3.0))
                (not (= U1 2.0))
                (not (= U1 1.0))
                (= N1 P2)
                (= Q1 R2)
                (= (+ Q1 (* (- 1.0) I)) 1.0)))
      (a!5 (and (= J1 R2)
                (= L1 Q2)
                (= U1 I)
                (not (= U1 0.0))
                (= U1 5.0)
                (not (= U1 4.0))
                (not (= U1 3.0))
                (not (= U1 2.0))
                (not (= U1 1.0))
                (= N1 P2)
                (= Q1 S2)
                (= (+ Q1 (* (- 1.0) I)) 1.0)))
      (a!6 (and (= H1 S2)
                (= J1 R2)
                (= L1 Q2)
                (= U1 I)
                (not (= U1 0.0))
                (= U1 4.0)
                (not (= U1 3.0))
                (not (= U1 2.0))
                (not (= U1 1.0))
                (= N1 P2)
                (= Q1 T2)
                (= (+ Q1 (* (- 1.0) I)) 1.0)))
      (a!8 (and (= F1 T2)
                (= H1 S2)
                (= J1 R2)
                (= L1 Q2)
                (= U1 I)
                (not (= U1 0.0))
                (= U1 3.0)
                (not (= U1 2.0))
                (not (= U1 1.0))
                (= N1 P2)
                (= Q1 U2)
                (= (+ Q1 (* (- 1.0) I)) 1.0)))
      (a!9 (and (= D1 U2)
                (= F1 T2)
                (= H1 S2)
                (= J1 R2)
                (= L1 Q2)
                (= U1 I)
                (not (= U1 0.0))
                (= U1 2.0)
                (not (= U1 1.0))
                (= N1 P2)
                (= Q1 V2)
                (= (+ Q1 (* (- 1.0) I)) 1.0)))
      (a!11 (and (= B1 V2)
                 (= D1 U2)
                 (= F1 T2)
                 (= H1 S2)
                 (= J1 R2)
                 (= L1 Q2)
                 (= U1 I)
                 (not (= U1 0.0))
                 (= U1 1.0)
                 (= N1 P2)
                 (= Q1 W2)
                 (= (+ Q1 (* (- 1.0) I)) 1.0)))
      (a!12 (and (= Z W2)
                 (= B1 V2)
                 (= D1 U2)
                 (= F1 T2)
                 (= H1 S2)
                 (= J1 R2)
                 (= L1 Q2)
                 (= U1 I)
                 (= U1 0.0)
                 (= N1 P2)
                 (= Q1 O2)
                 (= (+ Q1 (* (- 1.0) I)) 1.0)))
      (a!13 (or (= O1 0.0)
                (= O1 8.0)
                (= O1 7.0)
                (= O1 6.0)
                (= O1 5.0)
                (= O1 4.0)
                (= O1 3.0)
                (= O1 2.0)
                (= O1 1.0)))
      (a!32 (and (= U1 I)
                 (not (= U1 0.0))
                 (= U1 7.0)
                 (not (= U1 6.0))
                 (not (= U1 5.0))
                 (not (= U1 4.0))
                 (not (= U1 3.0))
                 (not (= U1 2.0))
                 (not (= U1 1.0))
                 (= N1 M1)
                 (= K1 Q1)
                 (= (+ Q1 (* (- 1.0) I)) 1.0)))
      (a!33 (and (= L1 K1)
                 (= U1 I)
                 (not (= U1 0.0))
                 (= U1 8.0)
                 (not (= U1 7.0))
                 (not (= U1 6.0))
                 (not (= U1 5.0))
                 (not (= U1 4.0))
                 (not (= U1 3.0))
                 (not (= U1 2.0))
                 (not (= U1 1.0))
                 (= M1 Q1)
                 (= (+ Q1 (* (- 1.0) I)) 1.0)))
      (a!34 (and (= L1 K1)
                 (= U1 I)
                 (not (= U1 0.0))
                 (= U1 6.0)
                 (not (= U1 5.0))
                 (not (= U1 4.0))
                 (not (= U1 3.0))
                 (not (= U1 2.0))
                 (not (= U1 1.0))
                 (= N1 M1)
                 (= I1 Q1)
                 (= (+ Q1 (* (- 1.0) I)) 1.0)))
      (a!36 (and (= J1 I1)
                 (= L1 K1)
                 (= U1 I)
                 (not (= U1 0.0))
                 (= U1 5.0)
                 (not (= U1 4.0))
                 (not (= U1 3.0))
                 (not (= U1 2.0))
                 (not (= U1 1.0))
                 (= N1 M1)
                 (= G1 Q1)
                 (= (+ Q1 (* (- 1.0) I)) 1.0)))
      (a!37 (and (= H1 G1)
                 (= J1 I1)
                 (= L1 K1)
                 (= U1 I)
                 (not (= U1 0.0))
                 (= U1 4.0)
                 (not (= U1 3.0))
                 (not (= U1 2.0))
                 (not (= U1 1.0))
                 (= N1 M1)
                 (= E1 Q1)
                 (= (+ Q1 (* (- 1.0) I)) 1.0)))
      (a!39 (and (= F1 E1)
                 (= H1 G1)
                 (= J1 I1)
                 (= L1 K1)
                 (= U1 I)
                 (not (= U1 0.0))
                 (= U1 3.0)
                 (not (= U1 2.0))
                 (not (= U1 1.0))
                 (= N1 M1)
                 (= C1 Q1)
                 (= (+ Q1 (* (- 1.0) I)) 1.0)))
      (a!40 (and (= D1 C1)
                 (= F1 E1)
                 (= H1 G1)
                 (= J1 I1)
                 (= L1 K1)
                 (= U1 I)
                 (not (= U1 0.0))
                 (= U1 2.0)
                 (not (= U1 1.0))
                 (= N1 M1)
                 (= A1 Q1)
                 (= (+ Q1 (* (- 1.0) I)) 1.0)))
      (a!42 (and (= B1 A1)
                 (= D1 C1)
                 (= F1 E1)
                 (= H1 G1)
                 (= J1 I1)
                 (= L1 K1)
                 (= U1 I)
                 (not (= U1 0.0))
                 (= U1 1.0)
                 (= N1 M1)
                 (= Y Q1)
                 (= (+ Q1 (* (- 1.0) I)) 1.0)))
      (a!43 (and (= Z Y)
                 (= B1 A1)
                 (= D1 C1)
                 (= F1 E1)
                 (= H1 G1)
                 (= J1 I1)
                 (= L1 K1)
                 (= U1 I)
                 (= U1 0.0)
                 (= N1 M1)
                 (= V Q1)
                 (= (+ Q1 (* (- 1.0) I)) 1.0)))
      (a!54 (or (and (= P G2) (= G2 0.0) (= Q U))
                (and (= P G2) (not (= G2 0.0)) (= G2 1.0) (= Q Z))
                (and (= P G2)
                     (not (= G2 0.0))
                     (= G2 2.0)
                     (not (= G2 1.0))
                     (= Q B1))
                (and (= P G2)
                     (not (= G2 0.0))
                     (= G2 3.0)
                     (not (= G2 2.0))
                     (not (= G2 1.0))
                     (= Q D1))
                (and (= P G2)
                     (not (= G2 0.0))
                     (= G2 4.0)
                     (not (= G2 3.0))
                     (not (= G2 2.0))
                     (not (= G2 1.0))
                     (= Q F1))
                (and (= P G2)
                     (not (= G2 0.0))
                     (= G2 5.0)
                     (not (= G2 4.0))
                     (not (= G2 3.0))
                     (not (= G2 2.0))
                     (not (= G2 1.0))
                     (= Q H1))
                (and (= P G2)
                     (not (= G2 0.0))
                     (= G2 6.0)
                     (not (= G2 5.0))
                     (not (= G2 4.0))
                     (not (= G2 3.0))
                     (not (= G2 2.0))
                     (not (= G2 1.0))
                     (= Q J1))
                (and (= P G2)
                     (not (= G2 0.0))
                     (= G2 7.0)
                     (not (= G2 6.0))
                     (not (= G2 5.0))
                     (not (= G2 4.0))
                     (not (= G2 3.0))
                     (not (= G2 2.0))
                     (not (= G2 1.0))
                     (= Q L1))
                (and (= P G2)
                     (not (= G2 0.0))
                     (= G2 8.0)
                     (not (= G2 7.0))
                     (not (= G2 6.0))
                     (not (= G2 5.0))
                     (not (= G2 4.0))
                     (not (= G2 3.0))
                     (not (= G2 2.0))
                     (not (= G2 1.0))
                     (= Q N1))))
      (a!59 (and (not A)
                 (not B)
                 (not C)
                 D
                 (not H)
                 (not G)
                 F
                 (not E)
                 (= L K)
                 (= N M)
                 (= P O)
                 (= R Q)
                 (= T S)
                 (= X W)
                 (= Z Y)
                 (= B1 A1)
                 (= D1 C1)
                 (= F1 E1)
                 (= H1 G1)
                 (= J1 I1)
                 (= L1 K1)
                 (= U1 I)
                 (not (= U1 0.0))
                 (not (= U1 8.0))
                 (not (= U1 7.0))
                 (not (= U1 6.0))
                 (not (= U1 5.0))
                 (not (= U1 4.0))
                 (not (= U1 3.0))
                 (not (= U1 2.0))
                 (not (= U1 1.0))
                 (= N1 M1)
                 (= P1 O1)
                 (= T1 S1)
                 (= X1 W1)
                 (= Z1 Y1)
                 (= B2 A2)
                 (= D2 C2)
                 (= F2 E2)
                 (= H2 G2)
                 (= J2 I2)
                 (= L2 K2)
                 (= V U)
                 (= N2 M2)
                 (= J I)
                 (= (+ Q1 (* (- 1.0) I)) 1.0))))
(let ((a!4 (and (or (and (or a!1 a!2) (= J1 R2)) a!3) (= H1 S2)))
      (a!35 (and (or (and (or a!32 a!33) (= J1 I1)) a!34) (= H1 G1)))
      (a!55 (or (and a!54 (not (<= S F2)) (= P C2) (= S E2) (= Q S))
                (and a!54 (<= S F2) (= D2 C2) (= F2 E2) (= Q S)))))
(let ((a!7 (and (or (and (or a!4 a!5) (= F1 T2)) a!6) (= D1 U2)))
      (a!38 (and (or (and (or a!35 a!36) (= F1 E1)) a!37) (= D1 C1)))
      (a!56 (and (not A)
                 B
                 (not C)
                 D
                 (not H)
                 G
                 (not F)
                 E
                 a!55
                 (not (<= 9.0 O))
                 (= L K)
                 (= N M)
                 (= X W)
                 (= Z Y)
                 (= B1 A1)
                 (= D1 C1)
                 (= F1 E1)
                 (= H1 G1)
                 (= J1 I1)
                 (= L1 K1)
                 (= N1 M1)
                 (= R1 Q1)
                 (= P1 O1)
                 (= T1 S1)
                 (= V1 U1)
                 (= X1 W1)
                 (= Z1 Y1)
                 (= B2 A2)
                 (= J2 I2)
                 (= L2 K2)
                 (= V U)
                 (= N2 M2)
                 (= J I)
                 (= (+ P (* (- 1.0) O)) (- 1.0))))
      (a!57 (and (not A)
                 B
                 (not C)
                 D
                 (not H)
                 G
                 F
                 E
                 a!55
                 (<= 9.0 O)
                 (= L K)
                 (= N M)
                 (= X W)
                 (= Z Y)
                 (= B1 A1)
                 (= D1 C1)
                 (not (= C2 O1))
                 (= F1 E1)
                 (= H1 G1)
                 (= J1 I1)
                 (= L1 K1)
                 (= N1 M1)
                 (= R1 Q1)
                 (= P1 O1)
                 (= T1 S1)
                 (= V1 U1)
                 (= X1 W1)
                 (= Z1 Y1)
                 (= B2 A2)
                 (= J2 I2)
                 (= L2 K2)
                 (= V U)
                 (= N2 M2)
                 (= J I)
                 (= (+ P (* (- 1.0) O)) (- 1.0)))))
(let ((a!10 (and (or (and (or a!7 a!8) (= B1 V2)) a!9) (= Z W2)))
      (a!41 (and (or (and (or a!38 a!39) (= B1 A1)) a!40) (= Z Y))))
(let ((a!14 (and (or (and (or a!10 a!11) (= U O2)) a!12)
                 a!13
                 (<= 9.0 J)
                 (= W1 0.0)
                 (= M W1)
                 (= M O1)
                 (= K O2)
                 (= (+ J (* (- 1.0) I)) 1.0)))
      (a!15 (and (or (and (or a!10 a!11) (= U O2)) a!12)
                 a!13
                 (<= 9.0 J)
                 (not (= W1 0.0))
                 (= W1 1.0)
                 (= M W1)
                 (= M O1)
                 (= K W2)
                 (= (+ J (* (- 1.0) I)) 1.0)))
      (a!16 (and (or (and (or a!10 a!11) (= U O2)) a!12)
                 a!13
                 (<= 9.0 J)
                 (not (= W1 0.0))
                 (= W1 2.0)
                 (not (= W1 1.0))
                 (= M W1)
                 (= M O1)
                 (= K V2)
                 (= (+ J (* (- 1.0) I)) 1.0)))
      (a!17 (and (or (and (or a!10 a!11) (= U O2)) a!12)
                 a!13
                 (<= 9.0 J)
                 (not (= W1 0.0))
                 (= W1 3.0)
                 (not (= W1 2.0))
                 (not (= W1 1.0))
                 (= M W1)
                 (= M O1)
                 (= K U2)
                 (= (+ J (* (- 1.0) I)) 1.0)))
      (a!18 (and (or (and (or a!10 a!11) (= U O2)) a!12)
                 a!13
                 (<= 9.0 J)
                 (not (= W1 0.0))
                 (= W1 4.0)
                 (not (= W1 3.0))
                 (not (= W1 2.0))
                 (not (= W1 1.0))
                 (= M W1)
                 (= M O1)
                 (= K T2)
                 (= (+ J (* (- 1.0) I)) 1.0)))
      (a!19 (and (or (and (or a!10 a!11) (= U O2)) a!12)
                 a!13
                 (<= 9.0 J)
                 (not (= W1 0.0))
                 (= W1 5.0)
                 (not (= W1 4.0))
                 (not (= W1 3.0))
                 (not (= W1 2.0))
                 (not (= W1 1.0))
                 (= M W1)
                 (= M O1)
                 (= K S2)
                 (= (+ J (* (- 1.0) I)) 1.0)))
      (a!20 (and (or (and (or a!10 a!11) (= U O2)) a!12)
                 a!13
                 (<= 9.0 J)
                 (not (= W1 0.0))
                 (= W1 6.0)
                 (not (= W1 5.0))
                 (not (= W1 4.0))
                 (not (= W1 3.0))
                 (not (= W1 2.0))
                 (not (= W1 1.0))
                 (= M W1)
                 (= M O1)
                 (= K R2)
                 (= (+ J (* (- 1.0) I)) 1.0)))
      (a!21 (and (or (and (or a!10 a!11) (= U O2)) a!12)
                 a!13
                 (<= 9.0 J)
                 (not (= W1 0.0))
                 (= W1 7.0)
                 (not (= W1 6.0))
                 (not (= W1 5.0))
                 (not (= W1 4.0))
                 (not (= W1 3.0))
                 (not (= W1 2.0))
                 (not (= W1 1.0))
                 (= M W1)
                 (= M O1)
                 (= K Q2)
                 (= (+ J (* (- 1.0) I)) 1.0)))
      (a!22 (and (or (and (or a!10 a!11) (= U O2)) a!12)
                 a!13
                 (<= 9.0 J)
                 (not (= W1 0.0))
                 (= W1 8.0)
                 (not (= W1 7.0))
                 (not (= W1 6.0))
                 (not (= W1 5.0))
                 (not (= W1 4.0))
                 (not (= W1 3.0))
                 (not (= W1 2.0))
                 (not (= W1 1.0))
                 (= M W1)
                 (= M O1)
                 (= K P2)
                 (= (+ J (* (- 1.0) I)) 1.0)))
      (a!44 (and (not A)
                 (not B)
                 (not C)
                 D
                 (not H)
                 (not G)
                 (not F)
                 E
                 (or (and (or a!41 a!42) (= V U)) a!43)
                 (not (<= 9.0 J))
                 (= L K)
                 (= N M)
                 (= P O)
                 (= R Q)
                 (= T S)
                 (= X W)
                 (= P1 O1)
                 (= T1 S1)
                 (= X1 W1)
                 (= Z1 Y1)
                 (= B2 A2)
                 (= D2 C2)
                 (= F2 E2)
                 (= H2 G2)
                 (= J2 I2)
                 (= L2 K2)
                 (= N2 M2)
                 (= (+ J (* (- 1.0) I)) 1.0)))
      (a!45 (and (or (and (or a!41 a!42) (= V U)) a!43)
                 a!13
                 (<= 9.0 J)
                 (= W1 0.0)
                 (= V K)
                 (= M W1)
                 (= M O1)
                 (= (+ J (* (- 1.0) I)) 1.0)))
      (a!46 (and (or (and (or a!41 a!42) (= V U)) a!43)
                 a!13
                 (<= 9.0 J)
                 (not (= W1 0.0))
                 (= W1 1.0)
                 (= M W1)
                 (= M O1)
                 (= K Y)
                 (= (+ J (* (- 1.0) I)) 1.0)))
      (a!47 (and (or (and (or a!41 a!42) (= V U)) a!43)
                 a!13
                 (<= 9.0 J)
                 (not (= W1 0.0))
                 (= W1 2.0)
                 (not (= W1 1.0))
                 (= M W1)
                 (= M O1)
                 (= K A1)
                 (= (+ J (* (- 1.0) I)) 1.0)))
      (a!48 (and (or (and (or a!41 a!42) (= V U)) a!43)
                 a!13
                 (<= 9.0 J)
                 (not (= W1 0.0))
                 (= W1 3.0)
                 (not (= W1 2.0))
                 (not (= W1 1.0))
                 (= M W1)
                 (= M O1)
                 (= K C1)
                 (= (+ J (* (- 1.0) I)) 1.0)))
      (a!49 (and (or (and (or a!41 a!42) (= V U)) a!43)
                 a!13
                 (<= 9.0 J)
                 (not (= W1 0.0))
                 (= W1 4.0)
                 (not (= W1 3.0))
                 (not (= W1 2.0))
                 (not (= W1 1.0))
                 (= M W1)
                 (= M O1)
                 (= K E1)
                 (= (+ J (* (- 1.0) I)) 1.0)))
      (a!50 (and (or (and (or a!41 a!42) (= V U)) a!43)
                 a!13
                 (<= 9.0 J)
                 (not (= W1 0.0))
                 (= W1 5.0)
                 (not (= W1 4.0))
                 (not (= W1 3.0))
                 (not (= W1 2.0))
                 (not (= W1 1.0))
                 (= M W1)
                 (= M O1)
                 (= K G1)
                 (= (+ J (* (- 1.0) I)) 1.0)))
      (a!51 (and (or (and (or a!41 a!42) (= V U)) a!43)
                 a!13
                 (<= 9.0 J)
                 (not (= W1 0.0))
                 (= W1 6.0)
                 (not (= W1 5.0))
                 (not (= W1 4.0))
                 (not (= W1 3.0))
                 (not (= W1 2.0))
                 (not (= W1 1.0))
                 (= M W1)
                 (= M O1)
                 (= K I1)
                 (= (+ J (* (- 1.0) I)) 1.0)))
      (a!52 (and (or (and (or a!41 a!42) (= V U)) a!43)
                 a!13
                 (<= 9.0 J)
                 (not (= W1 0.0))
                 (= W1 7.0)
                 (not (= W1 6.0))
                 (not (= W1 5.0))
                 (not (= W1 4.0))
                 (not (= W1 3.0))
                 (not (= W1 2.0))
                 (not (= W1 1.0))
                 (= M W1)
                 (= M O1)
                 (= K K1)
                 (= (+ J (* (- 1.0) I)) 1.0)))
      (a!53 (and (or (and (or a!41 a!42) (= V U)) a!43)
                 a!13
                 (<= 9.0 J)
                 (not (= W1 0.0))
                 (= W1 8.0)
                 (not (= W1 7.0))
                 (not (= W1 6.0))
                 (not (= W1 5.0))
                 (not (= W1 4.0))
                 (not (= W1 3.0))
                 (not (= W1 2.0))
                 (not (= W1 1.0))
                 (= M W1)
                 (= M O1)
                 (= K M1)
                 (= (+ J (* (- 1.0) I)) 1.0)))
      (a!58 (and (not A)
                 (not B)
                 (not C)
                 D
                 (not H)
                 (not G)
                 F
                 E
                 (or (and (or a!41 a!42) (= V U)) a!43)
                 a!13
                 (<= 9.0 J)
                 (= L K)
                 (= P O)
                 (= R Q)
                 (= T S)
                 (= X W)
                 (not (= W1 0.0))
                 (not (= W1 8.0))
                 (not (= W1 7.0))
                 (not (= W1 6.0))
                 (not (= W1 5.0))
                 (not (= W1 4.0))
                 (not (= W1 3.0))
                 (not (= W1 2.0))
                 (not (= W1 1.0))
                 (= P1 O1)
                 (= T1 S1)
                 (= Z1 Y1)
                 (= B2 A2)
                 (= D2 C2)
                 (= F2 E2)
                 (= H2 G2)
                 (= J2 I2)
                 (= L2 K2)
                 (= N2 M2)
                 (= M W1)
                 (= M O1)
                 (= (+ J (* (- 1.0) I)) 1.0))))
(let ((a!23 (or a!14 a!15 a!16 a!17 a!18 a!19 a!20 a!21 a!22)))
(let ((a!24 (or (and a!23
                     (= A2 M2)
                     (not (= Y1 0.0))
                     (= Y1 7.0)
                     (not (= Y1 6.0))
                     (not (= Y1 5.0))
                     (not (= Y1 4.0))
                     (not (= Y1 3.0))
                     (not (= Y1 2.0))
                     (not (= Y1 1.0))
                     (= S1 P2)
                     (= S1 A2)
                     (= K1 M2)
                     (= M Y1)
                     (= K K2))
                (and a!23
                     (= A2 M2)
                     (not (= Y1 0.0))
                     (= Y1 8.0)
                     (not (= Y1 7.0))
                     (not (= Y1 6.0))
                     (not (= Y1 5.0))
                     (not (= Y1 4.0))
                     (not (= Y1 3.0))
                     (not (= Y1 2.0))
                     (not (= Y1 1.0))
                     (= S1 P2)
                     (= S1 A2)
                     (= K1 Q2)
                     (= M Y1)
                     (= K K2)))))
(let ((a!25 (or (and a!24 (= I1 R2))
                (and a!23
                     (= A2 M2)
                     (not (= Y1 0.0))
                     (= Y1 6.0)
                     (not (= Y1 5.0))
                     (not (= Y1 4.0))
                     (not (= Y1 3.0))
                     (not (= Y1 2.0))
                     (not (= Y1 1.0))
                     (= S1 P2)
                     (= S1 A2)
                     (= K1 Q2)
                     (= I1 M2)
                     (= M Y1)
                     (= K K2)))))
(let ((a!26 (or (and a!25 (= G1 S2))
                (and a!23
                     (= A2 M2)
                     (not (= Y1 0.0))
                     (= Y1 5.0)
                     (not (= Y1 4.0))
                     (not (= Y1 3.0))
                     (not (= Y1 2.0))
                     (not (= Y1 1.0))
                     (= S1 P2)
                     (= S1 A2)
                     (= K1 Q2)
                     (= I1 R2)
                     (= G1 M2)
                     (= M Y1)
                     (= K K2)))))
(let ((a!27 (or (and a!26 (= E1 T2))
                (and a!23
                     (= A2 M2)
                     (not (= Y1 0.0))
                     (= Y1 4.0)
                     (not (= Y1 3.0))
                     (not (= Y1 2.0))
                     (not (= Y1 1.0))
                     (= S1 P2)
                     (= S1 A2)
                     (= K1 Q2)
                     (= I1 R2)
                     (= G1 S2)
                     (= E1 M2)
                     (= M Y1)
                     (= K K2)))))
(let ((a!28 (or (and a!27 (= C1 U2))
                (and a!23
                     (= A2 M2)
                     (not (= Y1 0.0))
                     (= Y1 3.0)
                     (not (= Y1 2.0))
                     (not (= Y1 1.0))
                     (= S1 P2)
                     (= S1 A2)
                     (= K1 Q2)
                     (= I1 R2)
                     (= G1 S2)
                     (= E1 T2)
                     (= C1 M2)
                     (= M Y1)
                     (= K K2)))))
(let ((a!29 (or (and a!28 (= A1 V2))
                (and a!23
                     (= A2 M2)
                     (not (= Y1 0.0))
                     (= Y1 2.0)
                     (not (= Y1 1.0))
                     (= S1 P2)
                     (= S1 A2)
                     (= K1 Q2)
                     (= I1 R2)
                     (= G1 S2)
                     (= E1 T2)
                     (= C1 U2)
                     (= A1 M2)
                     (= M Y1)
                     (= K K2)))))
(let ((a!30 (or (and a!29 (= Y W2))
                (and a!23
                     (= A2 M2)
                     (not (= Y1 0.0))
                     (= Y1 1.0)
                     (= S1 P2)
                     (= S1 A2)
                     (= K1 Q2)
                     (= I1 R2)
                     (= G1 S2)
                     (= E1 T2)
                     (= C1 U2)
                     (= A1 V2)
                     (= Y M2)
                     (= M Y1)
                     (= K K2)))))
(let ((a!31 (and (not A)
                 (not B)
                 (not C)
                 D
                 (not H)
                 G
                 (not F)
                 E
                 (or (and a!30 (= V O2))
                     (and a!23
                          (= A2 M2)
                          (= Y1 0.0)
                          (= S1 P2)
                          (= S1 A2)
                          (= K1 Q2)
                          (= I1 R2)
                          (= G1 S2)
                          (= E1 T2)
                          (= C1 U2)
                          (= A1 V2)
                          (= Y W2)
                          (= V M2)
                          (= M Y1)
                          (= K K2)))
                 (= R Q)
                 (= T S)
                 (= E2 0.0)
                 (= C2 0.0)
                 (= P1 O1)
                 (= H2 G2)
                 (= J2 I2)
                 (= W K2)
                 (= W M1)
                 (= O 0.0))))
  (or (and A (not B) (not C) D H (not G) (not F) E)
      a!31
      a!44
      (and (not A)
           (not B)
           (not C)
           D
           (not H)
           G
           (not F)
           (not E)
           (or a!45 a!46 a!47 a!48 a!49 a!50 a!51 a!52 a!53)
           (= P O)
           (= R Q)
           (= T S)
           (= X W)
           (= A2 M2)
           (not (= Y1 0.0))
           (not (= Y1 8.0))
           (not (= Y1 7.0))
           (not (= Y1 6.0))
           (not (= Y1 5.0))
           (not (= Y1 4.0))
           (not (= Y1 3.0))
           (not (= Y1 2.0))
           (not (= Y1 1.0))
           (= S1 A2)
           (= P1 O1)
           (= M1 S1)
           (= D2 C2)
           (= F2 E2)
           (= H2 G2)
           (= J2 I2)
           (= M Y1)
           (= K K2))
      a!56
      a!57
      (and (not A)
           (not B)
           (not C)
           (not D)
           (not H)
           (not G)
           (not F)
           E
           (= L K)
           (= N M)
           (= P O)
           (= R Q)
           (= T S)
           (= X W)
           (= Z Y)
           (= B1 A1)
           (= D1 C1)
           (= F1 E1)
           (= H1 G1)
           (= J1 I1)
           (= L1 K1)
           (= N1 M1)
           (= R1 Q1)
           (= P1 X2)
           (= T1 S1)
           (= V1 U1)
           (= X1 W1)
           (= Z1 Y1)
           (= B2 A2)
           (= D2 C2)
           (= F2 E2)
           (= H2 G2)
           (= J2 I2)
           (= L2 K2)
           (= V 0.0)
           (= N2 M2)
           (= J 0.0))
      (and (not A)
           (not B)
           C
           (not D)
           H
           (not G)
           (not F)
           E
           (= L K)
           (= N M)
           (= P O)
           (= R Q)
           (= T S)
           (= X W)
           (= Z Y)
           (= B1 A1)
           (= D1 C1)
           (= F1 E1)
           (= H1 G1)
           (= J1 I1)
           (= L1 K1)
           (= N1 M1)
           (= R1 Q1)
           (= P1 O1)
           (= T1 S1)
           (= V1 U1)
           (= X1 W1)
           (= Z1 Y1)
           (= B2 A2)
           (= D2 C2)
           (= F2 E2)
           (= H2 G2)
           (= J2 I2)
           (= L2 K2)
           (= V U)
           (= N2 M2)
           (= J I))
      (and (not A)
           (not B)
           C
           D
           H
           (not G)
           (not F)
           E
           (= L K)
           (= N M)
           (= P O)
           (= R Q)
           (= T S)
           (= X W)
           (= Z Y)
           (= B1 A1)
           (= D1 C1)
           (= F1 E1)
           (= H1 G1)
           (= J1 I1)
           (= L1 K1)
           (= N1 M1)
           (= R1 Q1)
           (= P1 O1)
           (= T1 S1)
           (= V1 U1)
           (= X1 W1)
           (= Z1 Y1)
           (= B2 A2)
           (= D2 C2)
           (= F2 E2)
           (= H2 G2)
           (= J2 I2)
           (= L2 K2)
           (= V U)
           (= N2 M2)
           (= J I))
      (and (not A)
           B
           (not C)
           (not D)
           H
           (not G)
           (not F)
           E
           (= L K)
           (= N M)
           (= P O)
           (= R Q)
           (= T S)
           (= X W)
           (= Z Y)
           (= B1 A1)
           (= D1 C1)
           (= F1 E1)
           (= H1 G1)
           (= J1 I1)
           (= L1 K1)
           (= N1 M1)
           (= R1 Q1)
           (= P1 O1)
           (= T1 S1)
           (= V1 U1)
           (= X1 W1)
           (= Z1 Y1)
           (= B2 A2)
           (= D2 C2)
           (= F2 E2)
           (= H2 G2)
           (= J2 I2)
           (= L2 K2)
           (= V U)
           (= N2 M2)
           (= J I))
      (and (not A)
           B
           C
           (not D)
           H
           (not G)
           (not F)
           E
           (= L K)
           (= N M)
           (= P O)
           (= R Q)
           (= T S)
           (= X W)
           (= Z Y)
           (= B1 A1)
           (= D1 C1)
           (= F1 E1)
           (= H1 G1)
           (= J1 I1)
           (= L1 K1)
           (= N1 M1)
           (= R1 Q1)
           (= P1 O1)
           (= T1 S1)
           (= V1 U1)
           (= X1 W1)
           (= Z1 Y1)
           (= B2 A2)
           (= D2 C2)
           (= F2 E2)
           (= H2 G2)
           (= J2 I2)
           (= L2 K2)
           (= V U)
           (= N2 M2)
           (= J I))
      (and (not A)
           B
           C
           D
           H
           (not G)
           (not F)
           E
           (= L K)
           (= N M)
           (= P O)
           (= R Q)
           (= T S)
           (= X W)
           (= Z Y)
           (= B1 A1)
           (= D1 C1)
           (= F1 E1)
           (= H1 G1)
           (= J1 I1)
           (= L1 K1)
           (= N1 M1)
           (= R1 Q1)
           (= P1 O1)
           (= T1 S1)
           (= V1 U1)
           (= X1 W1)
           (= Z1 Y1)
           (= B2 A2)
           (= D2 C2)
           (= F2 E2)
           (= H2 G2)
           (= J2 I2)
           (= L2 K2)
           (= V U)
           (= N2 M2)
           (= J I))
      a!58
      (and (not A)
           B
           (not C)
           D
           (not H)
           G
           F
           (not E)
           (= L K)
           (= N M)
           (= P G2)
           (= P O)
           (= R Q)
           (= T S)
           (= X W)
           (= Z Y)
           (not (= G2 0.0))
           (not (= G2 8.0))
           (not (= G2 7.0))
           (not (= G2 6.0))
           (not (= G2 5.0))
           (not (= G2 4.0))
           (not (= G2 3.0))
           (not (= G2 2.0))
           (not (= G2 1.0))
           (= B1 A1)
           (= D1 C1)
           (= F1 E1)
           (= H1 G1)
           (= J1 I1)
           (= L1 K1)
           (= N1 M1)
           (= R1 Q1)
           (= P1 O1)
           (= T1 S1)
           (= V1 U1)
           (= X1 W1)
           (= Z1 Y1)
           (= B2 A2)
           (= D2 C2)
           (= F2 E2)
           (= J2 I2)
           (= L2 K2)
           (= V U)
           (= N2 M2)
           (= J I))
      a!59)))))))))))))))
      )
      (state E
       F
       G
       H
       K
       M
       O
       Q
       S
       W
       Y
       A1
       C1
       E1
       G1
       I1
       K1
       M1
       Q1
       S1
       U1
       W1
       Y1
       A2
       C2
       E2
       G2
       I2
       K2
       M2
       J
       V
       P1)
    )
  )
)
(assert
  (forall ( (A Bool) (B Bool) (C Bool) (D Bool) (E Real) (F Real) (G Real) (H Real) (I Real) (J Real) (K Real) (L Real) (M Real) (N Real) (O Real) (P Real) (Q Real) (R Real) (S Real) (T Real) (U Real) (V Real) (W Real) (X Real) (Y Real) (Z Real) (A1 Real) (B1 Real) (C1 Real) (D1 Real) (E1 Real) (F1 Real) (G1 Real) ) 
    (=>
      (and
        (state D C B A F G H I J L M N O P Q R S T V W X Y Z A1 B1 C1 D1 E1 F1 G1 E K U)
        (and (not B) (not C) (= D true) (= A true))
      )
      false
    )
  )
)

(check-sat)
(exit)
